p wcnf 102 204 205 
1 -69 93 0 
1 -3 89 0 
1 -46 -30 0 
1 -19 -20 0 
1 25 -34 0 
1 43 65 0 
1 56 -37 0 
1 -99 -72 0 
1 13 -42 0 
1 11 -28 0 
1 82 -2 0 
1 -92 -18 0 
1 -54 -62 0 
1 -16 81 0 
1 3 40 0 
1 15 81 0 
1 -102 -84 0 
1 47 -93 0 
1 69 -12 0 
1 -36 -98 0 
1 4 -69 0 
1 27 53 0 
1 47 79 0 
1 -74 56 0 
1 -23 14 0 
1 68 59 0 
1 46 -86 0 
1 36 -2 0 
1 44 11 0 
1 10 -5 0 
1 -13 37 0 
1 24 -63 0 
1 30 18 0 
1 21 57 0 
1 -14 -51 0 
1 100 20 0 
1 -35 -70 0 
1 73 14 0 
1 -43 66 0 
1 88 -75 0 
1 3 -45 0 
1 54 97 0 
1 -74 -20 0 
1 19 -45 0 
1 61 40 0 
1 -64 -20 0 
1 -9 -81 0 
1 61 -88 0 
1 -4 -24 0 
1 93 -96 0 
1 -17 30 0 
1 48 -37 0 
1 -26 -66 0 
1 -27 -38 0 
1 28 -5 0 
1 88 -13 0 
1 14 55 0 
1 -56 72 0 
1 -88 48 0 
1 -47 -72 0 
1 -49 -4 0 
1 13 -18 0 
1 -97 32 0 
1 -43 -55 0 
1 -56 -60 0 
1 102 -38 0 
1 86 -28 0 
1 -4 -35 0 
1 82 81 0 
1 48 -30 0 
1 60 -88 0 
1 15 -55 0 
1 42 -55 0 
1 -21 -12 0 
1 -99 41 0 
1 58 89 0 
1 -43 16 0 
1 15 92 0 
1 97 77 0 
1 61 102 0 
1 14 52 0 
1 -2 36 0 
1 -63 49 0 
1 -21 26 0 
1 86 56 0 
1 -66 -36 0 
1 47 32 0 
1 -7 -13 0 
1 -66 -63 0 
1 -42 66 0 
1 -101 95 0 
1 23 15 0 
1 -18 29 0 
1 -92 -65 0 
1 101 -18 0 
1 -65 -11 0 
1 88 -28 0 
1 18 -14 0 
1 -41 52 0 
1 -53 97 0 
1 -66 74 0 
1 -59 102 0 
1 -6 -31 0 
1 -4 46 0 
1 34 -38 0 
1 -45 24 0 
1 -57 86 0 
1 -99 -26 0 
1 -54 87 0 
1 43 38 0 
1 -63 48 0 
1 -85 38 0 
1 -44 94 0 
1 53 -80 0 
1 -10 98 0 
1 -50 48 0 
1 17 -81 0 
1 20 92 0 
1 -45 -44 0 
1 -70 -96 0 
1 59 64 0 
1 -49 -81 0 
1 17 -15 0 
1 30 28 0 
1 25 55 0 
1 78 8 0 
1 -96 -65 0 
1 8 -63 0 
1 -16 -79 0 
1 -43 -24 0 
1 -26 4 0 
1 39 -56 0 
1 -23 8 0 
1 36 -85 0 
1 29 -61 0 
1 -4 -87 0 
1 87 -65 0 
1 -43 26 0 
1 4 100 0 
1 68 29 0 
1 62 41 0 
1 -34 77 0 
1 93 84 0 
1 33 -1 0 
1 -67 46 0 
1 -41 76 0 
1 -92 38 0 
1 -55 44 0 
1 28 100 0 
1 23 44 0 
1 -41 -86 0 
1 15 -46 0 
1 77 96 0 
1 -101 24 0 
1 37 51 0 
1 -74 -10 0 
1 -79 99 0 
1 44 53 0 
1 73 -54 0 
1 -17 85 0 
1 39 -85 0 
1 54 27 0 
1 70 -1 0 
1 39 -45 0 
1 -61 -5 0 
1 66 -9 0 
1 -81 65 0 
1 -76 55 0 
1 50 -49 0 
1 72 -56 0 
1 -63 93 0 
1 82 -76 0 
1 95 -26 0 
1 -74 14 0 
1 -30 16 0 
1 7 -58 0 
1 40 -4 0 
1 -78 -97 0 
1 -13 1 0 
1 99 -96 0 
1 -40 -85 0 
1 56 28 0 
1 -84 33 0 
1 -98 22 0 
1 34 -94 0 
1 12 -9 0 
1 49 -101 0 
1 -46 -92 0 
1 -17 -18 0 
1 -11 -22 0 
1 -76 27 0 
1 -4 -69 0 
1 58 -34 0 
1 89 -1 0 
1 -52 60 0 
1 26 -32 0 
1 -62 23 0 
1 67 -7 0 
1 -73 101 0 
1 48 -16 0 
1 -65 -89 0 
1 -74 70 0 
1 92 -23 0 
1 -2 -41 0 
